c FILE /home/rafael/Documents/HappySet/MIHS/inputs/happygen/output/graph_scale_free_k3_p0.1_v100_20241127_083807.txt
c SOURCE This is a scale-free graph formed for the happy graph colouring problem.
c DESCRIPTION It was generated using the problem generator of Rhyd Lewis
c
c GRAPH STATS
c Seed                             = 2056377252
c Number of Nodes                  = 100
c Number of colours k              = 3
c Number of pre-assignments        = 10
c Number of links per new node     = 5
c Density                          = 0.0979798
c 
c The degrees of nodes 1 to 100, respectively, are as follows 
c [31, 30, 29, 28, 27, 26, 24, 20, 20, 19, 19, 18, 18, 18, 18, 16, 15, 13, 12, 12, 12, 12, 12, 11, 11, 11, 
c  11, 11, 11, 11, 11, 11, 10, 9, 9, 9, 9, 9, 8, 8, 8, 8, 8, 8, 8, 7, 7, 7, 7, 7, 7, 
c  7, 7, 7, 7, 6, 6, 6, 6, 6, 6, 6, 6, 6, 6, 6, 6, 6, 6, 6, 6, 5, 5, 5, 5, 5, 
c  5, 5, 5, 5, 5, 5, 5, 5, 5, 5, 5, 5, 5, 5, 5, 5, 5, 5, 5, 5, 5, 5, 5, 5] 
c  
p edge 100 485 3
e 1 2
e 1 3
e 1 4
e 1 5
e 1 6
e 1 7
e 1 8
e 1 10
e 1 11
e 1 12
e 1 14
e 1 15
e 1 16
e 1 19
e 1 26
e 1 27
e 1 33
e 1 40
e 1 46
e 1 47
e 1 49
e 1 51
e 1 56
e 1 61
e 1 66
e 1 74
e 1 77
e 1 79
e 1 84
e 1 89
e 1 98
e 2 3
e 2 4
e 2 5
e 2 6
e 2 7
e 2 8
e 2 10
e 2 11
e 2 13
e 2 14
e 2 15
e 2 17
e 2 18
e 2 19
e 2 22
e 2 25
e 2 26
e 2 30
e 2 41
e 2 42
e 2 51
e 2 58
e 2 60
e 2 62
e 2 67
e 2 70
e 2 78
e 2 81
e 2 85
e 3 4
e 3 5
e 3 6
e 3 8
e 3 9
e 3 10
e 3 12
e 3 18
e 3 23
e 3 24
e 3 26
e 3 30
e 3 32
e 3 34
e 3 47
e 3 48
e 3 54
e 3 55
e 3 57
e 3 66
e 3 68
e 3 75
e 3 77
e 3 86
e 3 88
e 3 97
e 3 98
e 4 5
e 4 6
e 4 7
e 4 10
e 4 12
e 4 14
e 4 15
e 4 16
e 4 17
e 4 21
e 4 22
e 4 24
e 4 31
e 4 34
e 4 37
e 4 38
e 4 50
e 4 57
e 4 60
e 4 61
e 4 62
e 4 70
e 4 71
e 4 87
e 4 96
e 5 12
e 5 13
e 5 14
e 5 16
e 5 18
e 5 21
e 5 24
e 5 27
e 5 28
e 5 32
e 5 34
e 5 39
e 5 40
e 5 43
e 5 45
e 5 52
e 5 60
e 5 64
e 5 65
e 5 81
e 5 89
e 5 92
e 5 94
e 6 7
e 6 8
e 6 10
e 6 12
e 6 13
e 6 21
e 6 22
e 6 28
e 6 29
e 6 35
e 6 38
e 6 43
e 6 47
e 6 49
e 6 59
e 6 77
e 6 79
e 6 80
e 6 86
e 6 87
e 6 89
e 6 97
e 7 10
e 7 12
e 7 15
e 7 16
e 7 19
e 7 20
e 7 26
e 7 30
e 7 34
e 7 35
e 7 36
e 7 39
e 7 41
e 7 46
e 7 47
e 7 48
e 7 51
e 7 64
e 7 84
e 7 86
e 8 9
e 8 11
e 8 12
e 8 13
e 8 14
e 8 16
e 8 27
e 8 31
e 8 38
e 8 39
e 8 46
e 8 52
e 8 58
e 8 67
e 8 69
e 8 95
e 9 10
e 9 13
e 9 15
e 9 17
e 9 19
e 9 33
e 9 35
e 9 36
e 9 37
e 9 39
e 9 48
e 9 59
e 9 75
e 9 76
e 9 79
e 9 91
e 9 92
e 9 97
e 10 11
e 10 19
e 10 22
e 10 25
e 10 43
e 10 46
e 10 54
e 10 59
e 10 60
e 10 69
e 10 71
e 10 75
e 11 13
e 11 16
e 11 17
e 11 18
e 11 21
e 11 24
e 11 29
e 11 39
e 11 42
e 11 49
e 11 73
e 11 85
e 11 88
e 11 98
e 11 99
e 12 20
e 12 28
e 12 31
e 12 40
e 12 44
e 12 50
e 12 57
e 12 68
e 12 86
e 12 88
e 12 95
e 13 20
e 13 23
e 13 36
e 13 54
e 13 56
e 13 57
e 13 58
e 13 64
e 13 69
e 13 73
e 13 74
e 13 77
e 14 18
e 14 19
e 14 23
e 14 25
e 14 26
e 14 36
e 14 55
e 14 59
e 14 73
e 14 74
e 14 93
e 14 97
e 14 99
e 15 20
e 15 21
e 15 23
e 15 25
e 15 27
e 15 29
e 15 50
e 15 51
e 15 53
e 15 63
e 15 72
e 15 90
e 15 92
e 16 17
e 16 25
e 16 27
e 16 33
e 16 47
e 16 56
e 16 70
e 16 76
e 16 78
e 16 95
e 17 28
e 17 32
e 17 34
e 17 40
e 17 41
e 17 48
e 17 49
e 17 50
e 17 72
e 17 100
e 18 31
e 18 45
e 18 51
e 18 72
e 18 73
e 18 89
e 18 91
e 18 99
e 19 20
e 19 22
e 19 46
e 19 54
e 19 68
e 19 74
e 20 24
e 20 31
e 20 42
e 20 52
e 20 53
e 20 62
e 20 64
e 21 41
e 21 64
e 21 65
e 21 69
e 21 71
e 21 74
e 21 84
e 22 30
e 22 36
e 22 56
e 22 58
e 22 63
e 22 78
e 22 80
e 23 39
e 23 61
e 23 65
e 23 73
e 23 76
e 23 88
e 23 98
e 23 100
e 24 29
e 24 32
e 24 61
e 24 80
e 24 84
e 24 96
e 25 42
e 25 44
e 25 53
e 25 62
e 25 63
e 25 68
e 26 56
e 26 59
e 26 63
e 26 72
e 26 75
e 26 95
e 27 28
e 27 35
e 27 55
e 27 68
e 27 72
e 27 94
e 28 32
e 28 33
e 28 38
e 28 41
e 28 69
e 28 82
e 29 39
e 29 43
e 29 44
e 29 76
e 29 87
e 29 91
e 29 96
e 30 34
e 30 37
e 30 52
e 30 67
e 30 71
e 30 88
e 30 95
e 31 37
e 31 80
e 31 85
e 31 92
e 31 97
e 31 99
e 32 45
e 32 70
e 32 81
e 32 83
e 32 90
e 32 94
e 33 48
e 33 77
e 33 79
e 33 83
e 33 85
e 33 93
e 34 50
e 34 62
e 34 80
e 35 40
e 35 58
e 35 60
e 35 67
e 35 98
e 36 57
e 36 75
e 36 82
e 36 93
e 37 38
e 37 49
e 37 53
e 37 83
e 37 91
e 38 43
e 38 63
e 38 82
e 38 90
e 39 53
e 40 45
e 40 47
e 40 90
e 41 42
e 41 76
e 41 78
e 42 52
e 42 55
e 42 93
e 43 78
e 43 81
e 43 86
e 44 45
e 44 58
e 44 62
e 44 66
e 44 87
e 45 54
e 45 66
e 45 67
e 46 48
e 46 84
e 47 49
e 48 92
e 49 61
e 50 79
e 50 90
e 51 81
e 51 87
e 52 82
e 52 89
e 53 93
e 53 96
e 54 91
e 54 100
e 55 65
e 55 70
e 55 94
e 56 65
e 57 83
e 59 94
e 60 82
e 61 65
e 63 66
e 64 85
e 66 83
e 67 100
e 68 100
e 69 96
e 70 71
e 71 99
n 3 3
n 7 2
n 17 1
n 21 2
n 29 3
n 50 1
n 55 3
n 80 3
n 84 2
n 85 3
